evaluation/v1.12.0/mas76/mas76-09.mps.sol
Running HiGHS 1.12.0 (git hash: n/a): Copyright (c) 2025 HiGHS under MIT licence terms
Set option solver to "simplex"
Set option parallel to "off"
Set option time_limit to 1200
Set option user_bound_scale to -9
Set option log_file to "HiGHS.log"
Set option mip_rel_gap to 0
MIP mas76 has 12 rows; 151 cols; 1640 nonzeros; 150 integer variables (150 binary)
Assessing costs and bounds after applying user_bound_scale option value of -9
Coefficient ranges:
  Matrix  [2e-03, 2e+01]
  Cost    [2e-08, 1e+00]
  Bound   [1e+00, 2e+09]
  RHS     [3e-02, 3e+02]
WARNING: User-scaled problem has some excessively small costs
WARNING: User-scaled problem has some excessively large column bounds
WARNING:    Consider setting the user_bound_scale option to -20
Presolving model
12 rows, 150 cols, 1639 nonzeros  0s
12 rows, 148 cols, 1615 nonzeros  0s
Presolve reductions: rows 12(-0); columns 148(-3); nonzeros 1615(-25) 

Solving MIP model with:
   12 rows
   148 cols (145 binary, 2 integer, 0 implied int., 1 continuous, 0 domain fixed)
   1615 nonzeros

Src: B => Branching; C => Central rounding; F => Feasibility pump; H => Heuristic;
     I => Shifting; J => Feasibility jump; L => Sub-MIP; P => Empty MIP; R => Randomized rounding;
     S => Solve LP; T => Evaluate node; U => Unbounded; X => User solution; Y => HiGHS solution;
     Z => ZI Round; l => Trivial lower; p => Trivial point; u => Trivial upper; z => Trivial zero

        Nodes      |    B&B Tree     |            Objective Bounds              |  Dynamic Constraints |       Work      
Src  Proc. InQueue |  Leaves   Expl. | BestBound       BestSol              Gap |   Cuts   InLp Confl. | LpIters     Time

 J       0       0         0   0.00%   -inf            169.8593845        Large        0      0      0         0     0.0s
 R       0       0         0   0.00%   75.96465555     86.11130422       11.78%        0      0      0        40     0.0s
 L       0       0         0   0.00%   76.23106345     78.13487137        2.44%     1085     23     10       144     0.3s

53.7% inactive integer columns, restarting
Model after restart has 12 rows, 69 cols (68 bin., 0 int., 0 impl., 1 cont., 0 dom.fix.), and 676 nonzeros

         0       0         0   0.00%   76.23423952     78.13487137        2.43%       15      0      0      1277     0.4s
         0       0         0   0.00%   76.23423952     78.13487137        2.43%       15     15      4      1300     0.4s
HighsMipSolverData::transformNewIntegerFeasibleSolution tmpSolver.run();

Restarting search from the root node
Model after restart has 12 rows, 66 cols (65 bin., 0 int., 0 impl., 1 cont., 0 dom.fix.), and 640 nonzeros

      1416       0         0   0.00%   76.28130036     78.13487137        2.37%       15      0      0     18583     1.8s
      1416       0         0   0.00%   76.28130036     78.13487137        2.37%       15      3      4     18592     1.8s

Restarting search from the root node
Model after restart has 12 rows, 65 cols (64 bin., 0 int., 0 impl., 1 cont., 0 dom.fix.), and 628 nonzeros

      6067       0         0   0.00%   76.32965882     78.13487137        2.31%        8      0      0     50529     4.7s
      6067       0         0   0.00%   76.32965882     78.13487137        2.31%        8      1      2     50531     4.7s
 L    6067       0         0   0.00%   76.35480058     78.13487039        2.28%     1952     39      2     51058     5.3s
     15110     660      4171  23.58%   76.53669729     78.13487039        2.05%     1781     19   9747    115544    10.3s
     28879    1310     10695  35.45%   76.62464343     78.13487039        1.93%     1634      8   9947    195385    15.3s
     41014    1694     16554  46.37%   76.65396978     78.13487039        1.90%     1625     15   9949    269888    20.3s
     51853    2010     21793  54.74%   76.69485149     78.13487039        1.84%     1517     14   9882    339897    25.3s
     62427    2281     26927  59.42%   76.71972394     78.13487039        1.81%     1606      9   9938    408319    30.3s
     73754    2573     32415  61.99%   76.75932588     78.13487039        1.76%     1738     15   9902    477633    35.3s
     84721    2870     37727  64.76%   76.79076227     78.13487039        1.72%     1821     13   9857    545044    40.3s
     95538    3115     42988  67.62%   76.82313196     78.13487039        1.68%     1710     14   9834    612818    45.3s
    107155    3341     48652  70.11%   76.86533361     78.13487039        1.62%     1476     12   9860    685912    50.3s
    119129    3484     54545  74.39%   76.88907598     78.13487039        1.59%     1525     11   9847    760760    55.3s

        Nodes      |    B&B Tree     |            Objective Bounds              |  Dynamic Constraints |       Work      
Src  Proc. InQueue |  Leaves   Expl. | BestBound       BestSol              Gap |   Cuts   InLp Confl. | LpIters     Time

    130650    3635     60198  76.81%   76.90840631     78.13487039        1.57%     1505      6   9850    831061    60.3s
    142086    3760     65828  79.79%   76.93207918     78.13487039        1.54%     1841     11   9907    900600    65.3s
    153473    3852     71450  82.84%   76.97312752     78.13487039        1.49%     1503     10   9847    973291    70.5s
    167106    3979     78170  86.91%   77.01181246     78.13487039        1.44%     1300     11   9929     1054k    75.5s
    180022    4014     84575  90.03%   77.06027186     78.13487039        1.38%     1628      7   9821     1130k    80.5s
    189972    3922     89579  91.36%   77.09482838     78.13487039        1.33%     1445      9   9712     1195k    85.5s
    200698    3868     94945  92.92%   77.12820065     78.13487039        1.29%     1497      7   9974     1263k    90.5s
    211573    3677    100453  94.39%   77.19106696     78.13487039        1.21%     1471     13   9876     1330k    95.5s
    219223    3489    104356  95.22%   77.24664821     78.13487039        1.14%     1325      8   9977     1384k   100.5s
    228585    3125    109195  96.63%   77.32034743     78.13487039        1.04%     1481     11   9664     1446k   105.5s
    236391    2508    113387  97.66%   77.4565711      78.13487039        0.87%     1366      4   6107     1501k   110.5s
    241655    1511    116506  98.82%   77.62424209     78.13487039        0.65%     1369      8   2059     1548k   115.5s
    244638       0    118749 100.00%   78.13487039     78.13487039        0.00%     1303      4   1184     1580k   118.7s

Solving report
  Model             mas76
  Status            Optimal
  Primal bound      78.1348703906
  Dual bound        78.1348703906
  Gap               0%
  P-D integral      1.8553743266
  Solution status   feasible
                    78.1348703906 (objective)
                    0 (bound viol.)
                    0 (int. viol.)
                    0 (row viol.)
  Timing            118.66
  Max sub-MIP depth 5
  Nodes             244638
  Repair LPs        1 (0 feasible; 0 iterations)
  LP iterations     1580568
                    8922 (strong br.)
                    84751 (separation)
                    79181 (heuristics)
Model name          : mas76
Model status        : Optimal
Simplex   iterations: 1580568
IPM       iterations: -1
Crossover iterations: -1
PDLP      iterations: -1
QP ASM    iterations: -1
Objective value     :  7.8134870391e+01
HiGHS run time      :        118.66
WARNING: Solution optimality conditions: After removing user scaling
    max             0                                  integrality violations     (tolerance = 1e-06)
num/max      1 / 0.000502 (relative      0 / 3.19e-09) primal infeasibilities     (tolerance = 1e-06)
After solving the user-scaled model, the unscaled solution has objective value 40005.05364
WARNING: User scaled problem solved to optimality, but unscaled solution does not satisfy feasibilty and optimality tolerances
